MARKOV
232
 2 2 2 2 2 2 2 2 2 2 2 2 2 2 2 2 2 2 2 2 2 2 2 2 2 2 2 2 2 2 2 2 2 2 2 2 2 2 2 2 2 2 2 2 2 2 2 2 2 2 2 2 2 2 2 2 2 2 2 2 2 2 2 2 2 2 2 2 2 2 2 2 2 2 2 2 2 2 2 2 2 2 2 2 2 2 2 2 2 2 2 2 2 2 2 2 2 2 2 2 2 2 2 2 2 2 2 2 2 2 2 2 2 2 2 2 2 2 2 2 2 2 2 2 2 2 2 2 2 2 2 2 2 2 2 2 2 2 2 2 2 2 2 2 2 2 2 2 2 2 2 2 2 2 2 2 2 2 2 2 2 2 2 2 2 2 2 2 2 2 2 2 2 2 2 2 2 2 2 2 2 2 2 2 2 2 2 2 2 2 2 2 2 2 2 2 2 2 2 2 2 2 2 2 2 2 2 2 2 2 2 2 2 2 2 2 2 2 2 2 2 2 2 2 2 2 2 2 2 2 2 2
861
1	0 
1	1 
1	2 
1	3 
1	4 
1	5 
1	6 
1	7 
1	8 
1	9 
1	10 
1	11 
1	12 
1	13 
1	14 
1	15 
1	16 
1	17 
1	18 
1	19 
1	20 
1	21 
1	22 
1	23 
1	24 
1	25 
1	26 
1	27 
1	28 
1	29 
1	30 
1	31 
1	32 
1	33 
1	34 
1	35 
1	36 
1	37 
1	38 
1	39 
1	40 
1	41 
1	42 
1	43 
1	44 
1	45 
1	46 
1	47 
1	48 
1	49 
1	50 
1	51 
1	52 
1	53 
1	54 
1	55 
1	56 
1	57 
1	58 
1	59 
1	60 
1	61 
1	62 
1	63 
1	64 
1	65 
1	66 
1	67 
1	68 
1	69 
1	70 
1	71 
1	72 
1	73 
1	74 
1	75 
1	76 
1	77 
1	78 
1	79 
1	80 
1	81 
1	82 
1	83 
1	84 
1	85 
1	86 
1	87 
1	88 
1	89 
1	90 
1	91 
1	92 
1	93 
1	94 
1	95 
1	96 
1	97 
1	98 
1	99 
1	100 
1	101 
1	102 
1	103 
1	104 
1	105 
1	106 
1	107 
1	108 
1	109 
1	110 
1	111 
1	112 
1	113 
1	114 
1	115 
1	116 
1	117 
1	118 
1	119 
1	120 
1	121 
1	122 
1	123 
1	124 
1	125 
1	126 
1	127 
1	128 
1	129 
1	130 
1	131 
1	132 
1	133 
1	134 
1	135 
1	136 
1	137 
1	138 
1	139 
1	140 
1	141 
1	142 
1	143 
1	144 
1	145 
1	146 
1	147 
1	148 
1	149 
1	150 
1	151 
1	152 
1	153 
1	154 
1	155 
1	156 
1	157 
1	158 
1	159 
1	160 
1	161 
1	162 
1	163 
1	164 
1	165 
1	166 
1	167 
1	168 
1	169 
1	170 
1	171 
1	172 
1	173 
1	174 
1	175 
1	176 
1	177 
1	178 
1	179 
1	180 
1	181 
1	182 
1	183 
1	184 
1	185 
1	186 
1	187 
1	188 
1	189 
1	190 
1	191 
1	192 
1	193 
1	194 
1	195 
1	196 
1	197 
1	198 
1	199 
1	200 
1	201 
1	202 
1	203 
1	204 
1	205 
1	206 
1	207 
1	208 
1	209 
1	210 
1	211 
1	212 
1	213 
1	214 
1	215 
1	216 
1	217 
1	218 
1	219 
1	220 
1	221 
1	222 
1	223 
1	224 
1	225 
1	226 
1	227 
1	228 
1	229 
1	230 
1	231 
2	1 116 
2	1 117 
2	2 4 
2	2 5 
2	2 6 
2	2 202 
2	3 4 
2	3 5 
2	3 8 
2	3 9 
2	4 5 
2	4 136 
2	4 202 
2	5 6 
2	5 9 
2	5 160 
2	6 160 
2	6 161 
2	6 167 
2	6 202 
2	6 203 
2	7 8 
2	7 9 
2	7 10 
2	7 98 
2	7 99 
2	8 9 
2	8 98 
2	9 10 
2	9 160 
2	10 99 
2	10 100 
2	10 159 
2	10 160 
2	11 12 
2	11 13 
2	11 14 
2	11 15 
2	11 31 
2	12 13 
2	12 15 
2	12 56 
2	13 29 
2	13 31 
2	14 15 
2	14 28 
2	14 31 
2	14 121 
2	14 122 
2	15 57 
2	15 121 
2	16 18 
2	16 19 
2	16 50 
2	16 53 
2	16 54 
2	17 18 
2	17 55 
2	17 178 
2	17 182 
2	17 195 
2	18 46 
2	18 50 
2	18 53 
2	18 55 
2	18 182 
2	19 47 
2	19 50 
2	19 54 
2	20 21 
2	20 23 
2	20 24 
2	20 114 
2	21 23 
2	21 88 
2	21 89 
2	21 110 
2	21 114 
2	21 118 
2	21 218 
2	22 24 
2	22 115 
2	22 116 
2	22 119 
2	23 88 
2	23 94 
2	24 114 
2	24 115 
2	25 26 
2	25 27 
2	25 82 
2	25 83 
2	26 27 
2	26 78 
2	26 81 
2	27 81 
2	27 83 
2	27 84 
2	27 102 
2	27 103 
2	28 30 
2	28 31 
2	28 122 
2	28 162 
2	29 31 
2	29 33 
2	30 31 
2	30 36 
2	30 162 
2	30 164 
2	31 33 
2	31 36 
2	32 34 
2	32 36 
2	32 164 
2	32 175 
2	33 34 
2	33 35 
2	33 36 
2	34 35 
2	34 36 
2	34 42 
2	34 44 
2	34 175 
2	35 42 
2	36 164 
2	37 38 
2	37 39 
2	37 40 
2	37 169 
2	37 171 
2	37 193 
2	38 40 
2	38 166 
2	38 168 
2	38 169 
2	39 40 
2	39 145 
2	39 193 
2	39 215 
2	40 165 
2	40 166 
2	40 215 
2	40 216 
2	41 42 
2	41 43 
2	42 43 
2	42 44 
2	43 44 
2	43 176 
2	43 177 
2	44 175 
2	44 177 
2	45 47 
2	45 48 
2	46 49 
2	46 50 
2	46 179 
2	46 182 
2	47 48 
2	47 50 
2	48 49 
2	48 50 
2	49 124 
2	49 179 
2	51 52 
2	51 77 
2	51 140 
2	51 142 
2	51 144 
2	51 216 
2	52 144 
2	52 215 
2	52 216 
2	53 54 
2	53 55 
2	53 197 
2	54 80 
2	54 197 
2	55 194 
2	55 195 
2	55 196 
2	55 197 
2	56 57 
2	56 58 
2	57 58 
2	57 83 
2	57 84 
2	57 86 
2	57 121 
2	57 157 
2	58 82 
2	58 83 
2	59 60 
2	59 63 
2	59 64 
2	59 133 
2	60 61 
2	60 62 
2	60 64 
2	61 62 
2	62 64 
2	62 67 
2	63 64 
2	63 66 
2	63 132 
2	63 133 
2	63 204 
2	64 66 
2	64 67 
2	65 67 
2	65 68 
2	65 230 
2	66 67 
2	66 68 
2	66 154 
2	66 204 
2	66 227 
2	67 68 
2	68 227 
2	68 230 
2	69 70 
2	69 71 
2	69 125 
2	69 126 
2	69 184 
2	69 186 
2	70 71 
2	70 72 
2	70 185 
2	70 186 
2	71 72 
2	71 73 
2	71 99 
2	71 125 
2	72 73 
2	72 183 
2	72 185 
2	73 98 
2	73 99 
2	74 77 
2	74 128 
2	74 129 
2	74 130 
2	74 140 
2	74 156 
2	75 76 
2	75 77 
2	75 130 
2	75 198 
2	75 217 
2	76 77 
2	76 213 
2	76 216 
2	76 217 
2	77 130 
2	77 140 
2	77 216 
2	78 79 
2	78 80 
2	78 81 
2	79 80 
2	79 81 
2	79 104 
2	79 194 
2	79 197 
2	80 197 
2	81 103 
2	81 104 
2	82 83 
2	83 84 
2	84 102 
2	84 155 
2	84 157 
2	85 87 
2	85 107 
2	85 142 
2	85 143 
2	85 155 
2	86 87 
2	86 108 
2	86 121 
2	86 157 
2	87 107 
2	87 108 
2	87 155 
2	87 157 
2	88 89 
2	88 91 
2	88 93 
2	88 94 
2	89 91 
2	89 92 
2	89 218 
2	89 220 
2	90 91 
2	90 92 
2	90 93 
2	90 96 
2	90 181 
2	90 200 
2	90 201 
2	91 92 
2	91 93 
2	92 200 
2	92 220 
2	93 94 
2	93 96 
2	93 97 
2	94 97 
2	95 96 
2	95 97 
2	95 124 
2	95 180 
2	96 97 
2	96 180 
2	96 181 
2	98 99 
2	99 100 
2	99 125 
2	100 125 
2	100 159 
2	100 214 
2	101 103 
2	101 104 
2	101 158 
2	101 196 
2	101 199 
2	102 103 
2	102 155 
2	103 104 
2	103 155 
2	103 158 
2	104 194 
2	104 196 
2	105 106 
2	105 108 
2	105 121 
2	105 123 
2	105 145 
2	106 107 
2	106 108 
2	106 144 
2	106 145 
2	106 215 
2	107 108 
2	107 142 
2	107 144 
2	108 121 
2	109 110 
2	109 112 
2	109 113 
2	109 185 
2	109 186 
2	110 113 
2	110 118 
2	110 184 
2	110 186 
2	110 218 
2	110 219 
2	111 112 
2	111 117 
2	111 119 
2	111 183 
2	112 119 
2	112 183 
2	112 185 
2	113 115 
2	113 118 
2	113 119 
2	114 115 
2	114 118 
2	115 118 
2	115 119 
2	116 117 
2	116 119 
2	117 119 
2	120 122 
2	120 123 
2	120 147 
2	120 162 
2	120 190 
2	121 122 
2	121 123 
2	122 123 
2	122 162 
2	123 145 
2	123 147 
2	124 179 
2	124 180 
2	125 126 
2	125 127 
2	125 214 
2	126 127 
2	126 184 
2	126 188 
2	126 219 
2	126 221 
2	127 188 
2	127 214 
2	127 217 
2	128 129 
2	128 130 
2	128 131 
2	128 200 
2	129 131 
2	129 156 
2	129 158 
2	129 199 
2	130 187 
2	130 198 
2	130 200 
2	131 199 
2	131 200 
2	131 201 
2	132 133 
2	132 135 
2	132 204 
2	132 206 
2	133 134 
2	133 135 
2	134 135 
2	134 137 
2	135 139 
2	135 206 
2	136 137 
2	136 138 
2	136 202 
2	137 138 
2	137 139 
2	138 139 
2	138 202 
2	139 202 
2	139 206 
2	140 142 
2	140 143 
2	140 156 
2	141 146 
2	141 151 
2	141 208 
2	141 209 
2	141 210 
2	141 228 
2	141 231 
2	142 143 
2	142 144 
2	143 155 
2	143 156 
2	143 158 
2	144 215 
2	145 147 
2	145 192 
2	145 193 
2	145 215 
2	146 147 
2	146 148 
2	146 151 
2	146 189 
2	146 190 
2	146 191 
2	146 208 
2	146 224 
2	147 190 
2	147 192 
2	147 223 
2	148 150 
2	148 151 
2	148 224 
2	148 225 
2	149 150 
2	149 152 
2	149 154 
2	149 222 
2	149 226 
2	149 227 
2	150 151 
2	150 222 
2	150 225 
2	150 226 
2	151 226 
2	151 228 
2	152 153 
2	152 154 
2	152 222 
2	153 154 
2	153 170 
2	153 173 
2	153 204 
2	153 205 
2	153 222 
2	154 204 
2	154 227 
2	155 157 
2	155 158 
2	156 158 
2	158 199 
2	159 160 
2	159 161 
2	159 165 
2	159 213 
2	159 214 
2	160 161 
2	161 165 
2	161 166 
2	161 167 
2	162 163 
2	162 164 
2	162 190 
2	163 164 
2	163 174 
2	163 189 
2	163 190 
2	163 191 
2	164 174 
2	164 175 
2	165 166 
2	165 213 
2	165 216 
2	166 167 
2	166 168 
2	167 168 
2	167 173 
2	167 203 
2	168 169 
2	168 173 
2	169 170 
2	169 171 
2	169 173 
2	170 171 
2	170 173 
2	170 222 
2	170 225 
2	171 172 
2	171 192 
2	171 193 
2	171 225 
2	172 192 
2	172 223 
2	172 224 
2	172 225 
2	173 203 
2	173 205 
2	174 175 
2	174 177 
2	174 191 
2	174 212 
2	175 177 
2	176 177 
2	176 211 
2	177 211 
2	177 212 
2	178 180 
2	178 181 
2	178 182 
2	178 195 
2	179 180 
2	179 182 
2	180 181 
2	180 182 
2	181 195 
2	181 201 
2	183 185 
2	184 186 
2	184 219 
2	185 186 
2	187 188 
2	187 198 
2	187 200 
2	187 220 
2	187 221 
2	188 198 
2	188 217 
2	188 221 
2	189 190 
2	189 191 
2	191 208 
2	191 212 
2	192 193 
2	192 223 
2	194 196 
2	194 197 
2	195 196 
2	195 199 
2	195 201 
2	196 199 
2	198 217 
2	199 201 
2	200 201 
2	200 220 
2	202 203 
2	202 206 
2	203 205 
2	203 206 
2	204 205 
2	204 206 
2	205 206 
2	207 209 
2	207 210 
2	207 211 
2	207 212 
2	208 210 
2	208 212 
2	209 210 
2	210 212 
2	211 212 
2	213 214 
2	213 216 
2	213 217 
2	214 217 
2	215 216 
2	218 219 
2	218 220 
2	219 220 
2	219 221 
2	220 221 
2	222 225 
2	223 224 
2	224 225 
2	226 227 
2	226 228 
2	226 229 
2	227 229 
2	227 230 
2	228 229 
2	228 231 
2	229 230 
2	229 231 
2	230 231 
0	

2
 0.252912 1
2
 0.43561 1
2
 1 0.777408
2
 1 0.799129
2
 1 0.417334
2
 1 0.973552
2
 0.989656 1
2
 0.523834 1
2
 0.752832 1
2
 0.858769 1
2
 0.382986 1
2
 1 0.359734
2
 1 0.269387
2
 1 0.24041
2
 1 0.360407
2
 0.545719 1
2
 1 0.799838
2
 0.245855 1
2
 1 0.827929
2
 1 0.845878
2
 0.202729 1
2
 0.119942 1
2
 0.232204 1
2
 0.906003 1
2
 0.325184 1
2
 1 0.349983
2
 1 0.348059
2
 0.830992 1
2
 1 0.568925
2
 1 0.131581
2
 1 0.306861
2
 1 0.206029
2
 1 0.288323
2
 1 0.218156
2
 1 0.119729
2
 1 0.117102
2
 1 0.18118
2
 0.343761 1
2
 0.593569 1
2
 0.509682 1
2
 0.340896 1
2
 1 0.205231
2
 1 0.842962
2
 1 0.214763
2
 1 0.524164
2
 1 0.110695
2
 0.848214 1
2
 0.320544 1
2
 1 0.435672
2
 0.536038 1
2
 0.308197 1
2
 0.0213283 1
2
 0.0209798 1
2
 1 0.757116
2
 1 0.427219
2
 1 0.971436
2
 1 0.698216
2
 0.410317 1
2
 1 0.365328
2
 1 0.287666
2
 1 0.231512
2
 1 0.0881625
2
 1 0.240238
2
 1 0.309241
2
 1 0.370581
2
 1 0.522598
2
 1 0.40769
2
 1 0.397324
2
 1 0.319982
2
 0.640318 1
2
 1 0.565877
2
 0.853231 1
2
 1 0.623262
2
 1 0.263628
2
 0.120355 1
2
 0.0919937 1
2
 0.059234 1
2
 0.102167 1
2
 0.729886 1
2
 1 0.605406
2
 0.626007 1
2
 0.671187 1
2
 1 0.433392
2
 0.966002 1
2
 0.135688 1
2
 0.0712564 1
2
 0.0552325 1
2
 0.0658595 1
2
 0.742298 1
2
 0.360335 1
2
 0.516586 1
2
 1 0.840286
2
 0.353456 1
2
 0.868889 1
2
 1 0.821433
2
 0.830596 1
2
 0.285314 1
2
 1 0.533333
2
 0.109188 1
2
 0.0499425 1
2
 0.0797608 1
2
 0.124901 1
2
 0.0545497 1
2
 0.0952057 1
2
 0.191676 1
2
 0.0591618 1
2
 0.026508 1
2
 0.0437304 1
2
 0.101467 1
2
 1 0.281457
2
 1 0.681149
2
 1 0.590055
2
 1 0.576002
2
 1 0.600809
2
 1 0.289677
2
 1 0.581269
2
 1 0.415426
2
 1 0.298724
2
 1 0.251602
2
 1 0.560719
2
 0.12901 1
2
 0.0399586 1
2
 0.106754 1
2
 0.159674 1
2
 0.657489 1
2
 0.068724 1
2
 0.122186 1
2
 0.104826 1
2
 0.307374 1
2
 0.0592433 1
2
 0.140831 1
2
 0.161722 1
2
 1 0.530419
2
 1 0.146811
2
 1 0.250103
2
 1 0.356138
2
 1 0.455126
2
 1 0.160585
2
 1 0.273342
2
 1 0.596733
2
 0.0468207 1
2
 0.581251 1
2
 0.135512 1
2
 0.0683245 1
2
 0.105214 1
2
 0.00987694 1
2
 0.200188 1
2
 0.0641528 1
2
 0.427857 1
2
 0.532172 1
2
 0.634841 1
2
 0.564642 1
2
 0.654054 1
2
 0.910037 1
2
 0.369714 1
2
 0.0324861 1
2
 0.084669 1
2
 0.0820311 1
2
 0.0378366 1
2
 0.413676 1
2
 1 0.902433
2
 0.572605 1
2
 1 0.616553
2
 1 0.920154
2
 1 0.0840559
2
 0.270927 1
2
 0.519891 1
2
 0.26154 1
2
 0.616231 1
2
 0.306965 1
2
 0.632052 1
2
 0.190854 1
2
 0.743512 1
2
 0.445769 1
2
 0.464803 1
2
 0.574953 1
2
 1 0.190755
2
 1 0.342558
2
 0.480291 1
2
 1 0.686576
2
 1 0.678775
2
 0.600405 1
2
 0.128518 1
2
 1 0.19234
2
 0.830279 1
2
 1 0.765896
2
 1 0.876465
2
 0.156205 1
2
 0.0526291 1
2
 0.240151 1
2
 0.134384 1
2
 0.356213 1
2
 0.0505389 1
2
 0.0571721 1
2
 0.0597448 1
2
 0.165301 1
2
 0.0398929 1
2
 0.158885 1
2
 0.143114 1
2
 0.229361 1
2
 0.24243 1
2
 0.135134 1
2
 1 0.302682
2
 0.440891 1
2
 1 0.628769
2
 0.855821 1
2
 1 0.42909
2
 1 0.262215
2
 0.347713 1
2
 1 0.202836
2
 1 0.455431
2
 1 0.353345
2
 1 0.984581
2
 0.0449328 1
2
 0.0416877 1
2
 0.0175856 1
2
 0.0377974 1
2
 0.058796 1
2
 0.0532812 1
2
 0.0645351 1
2
 0.133366 1
2
 0.162517 1
2
 0.893134 1
2
 0.261881 1
2
 0.332975 1
2
 0.492387 1
2
 0.813249 1
2
 1 0.909937
2
 0.905306 1
2
 0.585054 1
2
 1 0.446861
2
 0.714282 1
4
 0.922277 0.226125 0.226125 1
4
 0.920963 0.226805 0.226805 1
4
 0.944132 0.269699 0.269699 1
4
 0.948423 0.271851 0.271851 1
4
 0.952485 0.27587 0.27587 1
4
 0.951075 0.27657 0.27657 1
4
 0.938642 0.263921 0.263921 1
4
 0.942908 0.266027 0.266027 1
4
 0.937296 0.260418 0.260418 1
4
 0.94266 0.264272 0.264272 1
4
 0.944172 0.268201 0.268201 1
4
 0.939966 0.267813 0.267813 1
4
 0.946813 0.272857 0.272857 1
4
 0.952526 0.274337 0.274337 1
4
 0.948214 0.268558 0.268558 1
4
 0.952667 0.272244 0.272244 1
4
 0.956748 0.276269 0.276269 1
4
 0.959171 0.279211 0.279211 1
4
 0.962242 0.282907 0.282907 1
4
 0.95519 0.279099 0.279099 1
4
 0.959645 0.282439 0.282439 1
4
 0.938989 0.258917 0.258917 1
4
 0.944363 0.262749 0.262749 1
4
 0.945527 0.261931 0.261931 1
4
 0.936663 0.255536 0.255536 1
4
 0.940708 0.257096 0.257096 1
4
 0.942571 0.262895 0.262895 1
4
 0.934886 0.255678 0.255678 1
4
 0.949134 0.265955 0.265955 1
4
 0.952417 0.270449 0.270449 1
4
 0.945461 0.260234 0.260234 1
4
 0.951743 0.264917 0.264917 1
4
 0.955457 0.269582 0.269582 1
4
 0.953591 0.269607 0.269607 1
4
 1 0.329439 0.329439 0.956352
4
 1 0.332069 0.332069 0.954726
4
 1 0.328099 0.328099 0.963328
4
 1 0.326832 0.326832 0.962274
4
 1 0.332627 0.332627 0.95781
4
 1 0.331722 0.331722 0.952149
4
 1 0.326491 0.326491 0.959677
4
 1 0.327108 0.327108 0.954758
4
 1 0.336865 0.336865 0.949754
4
 1 0.334932 0.334932 0.953601
4
 1 0.325163 0.325163 0.966678
4
 1 0.328723 0.328723 0.967001
4
 1 0.330927 0.330927 0.962194
4
 1 0.322625 0.322625 0.971858
4
 1 0.324839 0.324839 0.971736
4
 1 0.321676 0.321676 0.965554
4
 1 0.32138 0.32138 0.970794
4
 1 0.286995 0.286995 0.981796
4
 1 0.289993 0.289993 0.973247
4
 1 0.286536 0.286536 0.978823
4
 1 0.290427 0.290427 0.977012
4
 1 0.292374 0.292374 0.972155
4
 1 0.285085 0.285085 0.988909
4
 1 0.287276 0.287276 0.988674
4
 1 0.282798 0.282798 0.995858
4
 1 0.281895 0.281895 0.994272
4
 1 0.284485 0.284485 0.995652
4
 1 0.28311 0.28311 0.987643
4
 1 0.284817 0.284817 0.983223
4
 1 0.288685 0.288685 0.981404
4
 1 0.287467 0.287467 0.985974
4
 1 0.282082 0.282082 0.991557
4
 1 0.289271 0.289271 0.970221
4
 1 0.287793 0.287793 0.974662
4
 1 0.293657 0.293657 0.968022
4
 0.952423 0.246013 0.246013 1
4
 0.953989 0.244992 0.244992 1
4
 0.943975 0.238536 0.238536 1
4
 0.948414 0.242542 0.242542 1
4
 0.956573 0.248696 0.248696 1
4
 0.959875 0.252135 0.252135 1
4
 0.958639 0.252805 0.252805 1
4
 0.951537 0.249605 0.249605 1
4
 0.950983 0.246208 0.246208 1
4
 0.951417 0.247873 0.247873 1
4
 0.956529 0.252681 0.252681 1
4
 0.934229 0.233278 0.233278 1
4
 0.934085 0.234363 0.234363 1
4
 0.927763 0.229899 0.229899 1
4
 0.93074 0.233647 0.233647 1
4
 0.961454 0.251089 0.251089 1
4
 0.962693 0.250424 0.250424 1
4
 0.942548 0.238726 0.238726 1
4
 0.937991 0.235876 0.235876 1
4
 1 0.310941 0.310941 0.961426
4
 1 0.309859 0.309859 0.965609
4
 1 0.315093 0.315093 0.959092
4
 1 0.313879 0.313879 0.962335
4
 1 0.308194 0.308194 0.966128
4
 1 0.307357 0.307357 0.962567
4
 1 0.305809 0.305809 0.967159
4
 1 0.304745 0.304745 0.971367
4
 1 0.311106 0.311106 0.967041
4
 1 0.309298 0.309298 0.970771
4
 1 0.306382 0.306382 0.974013
4
 1 0.303978 0.303978 0.97586
4
 1 0.333583 0.333583 0.963877
4
 1 0.33326 0.33326 0.961462
4
 1 0.327129 0.327129 0.970997
4
 1 0.331633 0.331633 0.968584
4
 1 0.33743 0.33743 0.952822
4
 1 0.342303 0.342303 0.94786
4
 1 0.33582 0.33582 0.959086
4
 1 0.338678 0.338678 0.95875
4
 1 0.33418 0.33418 0.966191
4
 1 0.337487 0.337487 0.963905
4
 1 0.340339 0.340339 0.9517
4
 1 0.338349 0.338349 0.956347
4
 1 0.345657 0.345657 0.954903
4
 1 0.342322 0.342322 0.957537
4
 1 0.341118 0.341118 0.962686
4
 1 0.345813 0.345813 0.958149
4
 1 0.34658 0.34658 0.948749
4
 1 0.348463 0.348463 0.945157
4
 1 0.343235 0.343235 0.951366
4
 1 0.349801 0.349801 0.94716
4
 1 0.344553 0.344553 0.953382
4
 1 0.352581 0.352581 0.946515
4
 1 0.350441 0.350441 0.950587
4
 1 0.348068 0.348068 0.953992
4
 1 0.354498 0.354498 0.942931
4
 1 0.340029 0.340029 0.961153
4
 0.984635 0.298261 0.298261 1
4
 0.99059 0.301694 0.301694 1
4
 0.984812 0.296502 0.296502 1
4
 0.984759 0.300345 0.300345 1
4
 0.989463 0.304222 0.304222 1
4
 0.992221 0.304479 0.304479 1
4
 0.981406 0.293715 0.293715 1
4
 0.975993 0.290711 0.290711 1
4
 0.978332 0.293908 0.293908 1
4
 0.981354 0.297523 0.297523 1
4
 0.987342 0.297096 0.297096 1
4
 0.998215 0.307056 0.307056 1
4
 0.99477 0.30509 0.30509 1
4
 0.993839 0.301391 0.301391 1
4
 0.976508 0.287693 0.287693 1
4
 0.976168 0.288996 0.288996 1
4
 0.988042 0.296204 0.296204 1
4
 0.981159 0.289652 0.289652 1
4
 1 0.360248 0.360248 0.941233
4
 1 0.361 0.361 0.944221
4
 1 0.358061 0.358061 0.945281
4
 1 0.355146 0.355146 0.946343
4
 1 0.355888 0.355888 0.949347
4
 1 0.356738 0.356738 0.953097
4
 1 0.354465 0.354465 0.954322
4
 1 0.350599 0.350599 0.953818
4
 1 0.351579 0.351579 0.955393
4
 1 0.285395 0.285395 0.97202
4
 1 0.28174 0.28174 0.97751
4
 1 0.278809 0.278809 0.990325
4
 1 0.282656 0.282656 0.984652
4
 1 0.277611 0.277611 0.994745
4
 1 0.279942 0.279942 0.992998
4
 1 0.28361 0.28361 0.976821
4
 1 0.285821 0.285821 0.97578
4
 1 0.27832 0.27832 0.986945
4
 1 0.282161 0.282161 0.981292
4
 1 0.273811 0.273811 0.998049
4
 1 0.275484 0.275484 0.995999
4
 0.990442 0.292965 0.292965 1
4
 0.988148 0.28867 0.28867 1
4
 0.993747 0.292807 0.292807 1
4
 0.997153 0.297235 0.297235 1
4
 0.99487 0.296435 0.296435 1
4
 0.9862 0.289939 0.289939 1
4
 0.993614 0.296843 0.296843 1
4
 0.991864 0.296906 0.296906 1
4
 0.984955 0.290339 0.290339 1
4
 1 0.294096 0.294096 0.971766
4
 1 0.290904 0.290904 0.98117
4
 1 0.294032 0.294032 0.975556
4
 1 0.29852 0.29852 0.966037
4
 1 0.296003 0.296003 0.970707
4
 1 0.291317 0.291317 0.984775
4
 1 0.286862 0.286862 0.992697
4
 1 0.289732 0.289732 0.989529
4
 1 0.292791 0.292791 0.9801
4
 1 0.322284 0.322284 0.960606
4
 1 0.323253 0.323253 0.956314
4
 1 0.320421 0.320421 0.961175
4
 1 0.317294 0.317294 0.964625
4
 1 0.31545 0.31545 0.968346
4
 1 0.317274 0.317274 0.97093
4
 1 0.319166 0.319166 0.970729
4
 1 0.316519 0.316519 0.969275
4
 1 0.319479 0.319479 0.957078
4
 1 0.318248 0.318248 0.960315
4
 0.950778 0.292684 0.292684 1
4
 0.956122 0.294578 0.294578 1
4
 0.955551 0.29574 0.29574 1
4
 0.949941 0.28927 0.28927 1
4
 0.951722 0.296413 0.296413 1
4
 0.956185 0.299577 0.299577 1
4
 0.95588 0.297463 0.297463 1
4
 0.956805 0.301638 0.301638 1
4
 0.960985 0.302706 0.302706 1
4
 0.965745 0.307968 0.307968 1
4
 0.961253 0.299388 0.299388 1
4
 0.966211 0.30241 0.30241 1
4
 0.960909 0.295863 0.295863 1
4
 0.955609 0.292838 0.292838 1
4
 0.964291 0.297909 0.297909 1
4
 0.965634 0.303603 0.303603 1
4
 0.965437 0.305795 0.305795 1
4
 0.976015 0.315899 0.315899 1
4
 0.979553 0.31742 0.31742 1
4
 0.986148 0.323846 0.323846 1
4
 0.970417 0.308881 0.308881 1
4
 0.973935 0.310368 0.310368 1
4
 0.972891 0.306712 0.306712 1
4
 0.968687 0.302103 0.302103 1
4
 0.97679 0.311461 0.311461 1
4
 0.973736 0.312608 0.312608 1
4
 0.980131 0.31522 0.31522 1
4
 0.983846 0.320472 0.320472 1
4
 0.942141 0.25164 0.25164 1
4
 0.94176 0.252663 0.252663 1
4
 0.947651 0.257149 0.257149 1
4
 0.950873 0.257907 0.257907 1
4
 0.947945 0.254773 0.254773 1
4
 0.944455 0.25191 0.25191 1
4
 0.937253 0.249009 0.249009 1
4
 0.933046 0.244926 0.244926 1
4
 0.936166 0.245534 0.245534 1
4
 0.939935 0.248268 0.248268 1
4
 0.932669 0.245922 0.245922 1
4
 0.933461 0.248391 0.248391 1
4
 0.938757 0.252712 0.252712 1
4
 0.942735 0.254461 0.254461 1
4
 0.929271 0.244318 0.244318 1
4
 0.927262 0.239622 0.239622 1
4
 0.931587 0.242489 0.242489 1
4
 0.931314 0.24954 0.24954 1
4
 0.935337 0.251064 0.251064 1
4
 0.988072 0.285936 0.285936 1
4
 0.989611 0.284122 0.284122 1
4
 0.994747 0.28749 0.28749 1
4
 0.985759 0.282105 0.282105 1
4
 0.993671 0.290033 0.290033 1
4
 0.996416 0.290649 0.290649 1
4
 0.976034 0.27859 0.27859 1
4
 0.98028 0.280779 0.280779 1
4
 0.977986 0.277017 0.277017 1
4
 0.973961 0.274539 0.274539 1
4
 0.972386 0.275331 0.275331 1
4
 0.980349 0.28261 0.28261 1
4
 0.973279 0.279909 0.279909 1
4
 0.978416 0.283852 0.283852 1
4
 0.972454 0.277126 0.277126 1
4
 0.982309 0.281014 0.281014 1
4
 0.990193 0.288912 0.288912 1
4
 0.982673 0.286083 0.286083 1
4
 1 0.302284 0.302284 0.968306
4
 1 0.303216 0.303216 0.964165
4
 1 0.303917 0.303917 0.967786
4
 1 0.300068 0.300068 0.969285
4
 1 0.300762 0.300762 0.972925
4
 1 0.297861 0.297861 0.977792
4
 1 0.29604 0.29604 0.978616
4
 1 0.297538 0.297538 0.97397
4
 1 0.298456 0.298456 0.969805
4
 1 0.301626 0.301626 0.976901
4
 1 0.29947 0.29947 0.977268
4
 1 0.316361 0.316361 0.960514
4
 1 0.313311 0.313311 0.967479
4
 1 0.308553 0.308553 0.974454
4
 1 0.307765 0.307765 0.977774
4
 1 0.312546 0.312546 0.972143
4
 1 0.308054 0.308054 0.983429
4
 1 0.306275 0.306275 0.988422
4
 1 0.30341 0.30341 0.991914
4
 1 0.302835 0.302835 0.990359
4
 1 0.304865 0.304865 0.985435
4
 1 0.312781 0.312781 0.978386
4
 1 0.313959 0.313959 0.98027
4
 1 0.316982 0.316982 0.976199
4
 1 0.314353 0.314353 0.974736
4
 1 0.308685 0.308685 0.985353
4
 1 0.311646 0.311646 0.982264
4
 1 0.307264 0.307264 0.982376
4
 1 0.312037 0.312037 0.976718
4
 0.96353 0.255238 0.255238 1
4
 0.968127 0.257753 0.257753 1
4
 0.97013 0.257969 0.257969 1
4
 0.966016 0.253887 0.253887 1
4
 0.96688 0.258438 0.258438 1
4
 0.967749 0.260368 0.260368 1
4
 0.960171 0.255791 0.255791 1
4
 0.964842 0.259664 0.259664 1
4
 0.976651 0.265123 0.265123 1
4
 0.977528 0.267102 0.267102 1
4
 0.978672 0.265345 0.265345 1
4
 0.983182 0.268395 0.268395 1
4
 0.986655 0.271886 0.271886 1
4
 0.980524 0.270732 0.270732 1
4
 0.985686 0.272895 0.272895 1
4
 0.972365 0.262933 0.262933 1
4
 0.973503 0.261203 0.261203 1
4
 0.976221 0.268496 0.268496 1
4
 0.970316 0.264181 0.264181 1
4
 0.971381 0.257286 0.257286 1
4
 0.980013 0.264427 0.264427 1
4
 0.975881 0.259911 0.259911 1
4
 0.971743 0.255798 0.255798 1
4
 0.984895 0.26592 0.26592 1
4
 0.980743 0.261379 0.261379 1
4
 0.990345 0.267051 0.267051 1
4
 0.989538 0.268416 0.268416 1
4
 0.980378 0.262898 0.262898 1
4
 0.98917 0.269977 0.269977 1
4
 0.988007 0.270946 0.270946 1
4
 0.936597 0.25388 0.25388 1
4
 0.946893 0.260027 0.260027 1
4
 0.944629 0.257199 0.257199 1
4
 0.950906 0.261827 0.261827 1
4
 0.956904 0.269368 0.269368 1
4
 0.957499 0.267967 0.267967 1
4
 1 0.298175 0.298175 0.984832
4
 1 0.296044 0.296044 0.985202
4
 1 0.296453 0.296453 0.989832
4
 1 0.292633 0.292633 0.990791
4
 1 0.291603 0.291603 0.993894
4
 1 0.303246 0.303246 0.979562
4
 1 0.304863 0.304863 0.981039
4
 1 0.298717 0.298717 0.981788
4
 1 0.302471 0.302471 0.982899
4
 1 0.29913 0.29913 0.986403
4
 1 0.294769 0.294769 0.982984
4
 1 0.293165 0.293165 0.987728
4
 1 0.31046 0.31046 0.991205
4
 1 0.313181 0.313181 0.986001
4
 1 0.316197 0.316197 0.981906
4
 1 0.3156 0.3156 0.986964
4
 1 0.312196 0.312196 0.99226
4
 1 0.307155 0.307155 0.992461
4
 1 0.310102 0.310102 0.989349
4
 1 0.304159 0.304159 0.998253
4
 1 0.309127 0.309127 0.99563
4
 0.999987 0.304755 0.304755 1
4
 1 0.309847 0.309847 0.987251
4
 1 0.304032 0.304032 0.993855
4
 1 0.303909 0.303909 0.996135
4
 1 0.315831 0.315831 0.980067
4
 0.944151 0.246816 0.246816 1
4
 0.935871 0.241296 0.241296 1
4
 0.939808 0.242543 0.242543 1
4
 0.937465 0.243636 0.243636 1
4
 0.94124 0.246349 0.246349 1
4
 0.943721 0.245159 0.245159 1
4
 0.947963 0.247747 0.247747 1
4
 0.948651 0.251836 0.251836 1
4
 0.945159 0.249006 0.249006 1
4
 0.953057 0.252553 0.252553 1
4
 0.952144 0.253166 0.253166 1
4
 0.927895 0.236036 0.236036 1
4
 0.923419 0.231519 0.231519 1
4
 0.927703 0.234588 0.234588 1
4
 0.92516 0.235508 0.235508 1
4
 0.931334 0.23698 0.23698 1
4
 0.928781 0.237909 0.237909 1
4
 0.933113 0.240756 0.240756 1
4
 0.938612 0.238936 0.238936 1
4
 0.943602 0.243458 0.243458 1
4
 0.935251 0.238205 0.238205 1
4
 0.942402 0.239836 0.239836 1
4
 0.947412 0.244375 0.244375 1
4
 0.942832 0.241457 0.241457 1
4
 0.934487 0.236248 0.236248 1
4
 0.923877 0.228716 0.228716 1
4
 0.928163 0.231749 0.231749 1
4
 0.926841 0.232445 0.232445 1
4
 1 0.324143 0.324143 0.977174
4
 1 0.321327 0.321327 0.982331
4
 1 0.322488 0.322488 0.983843
4
 1 0.328606 0.328606 0.974746
4
 1 0.325908 0.325908 0.980025
4
 1 0.321061 0.321061 0.975874
4
 1 0.318271 0.318271 0.981025
4
 1 0.320455 0.320455 0.980901
4
 1 0.327714 0.327714 0.973327
4
 1 0.314245 0.314245 0.99137
4
 1 0.318819 0.318819 0.987596
4
 0.997502 0.271954 0.271954 1
4
 0.994642 0.271125 0.271125 1
4
 0.951858 0.259742 0.259742 1
4
 0.954906 0.263181 0.263181 1
4
 0.95521 0.265052 0.265052 1
4
 0.958152 0.263956 0.263956 1
4
 0.952153 0.257343 0.257343 1
4
 0.960159 0.263841 0.263841 1
4
 0.955658 0.258702 0.258702 1
4
 0.957655 0.261273 0.261273 1
4
 0.963233 0.267334 0.267334 1
4
 0.961527 0.269352 0.269352 1
4
 0.965012 0.270649 0.270649 1
4
 0.992808 0.284562 0.284562 1
4
 0.983838 0.279232 0.279232 1
4
 0.989257 0.280777 0.280777 1
4
 0.983438 0.27665 0.27665 1
4
 0.994391 0.284106 0.284106 1
4
 0.999635 0.291099 0.291099 1
4
 1 0.29293 0.29293 0.996713
4
 0.999198 0.287906 0.287906 1
4
 0.975398 0.273018 0.273018 1
4
 0.975977 0.274769 0.274769 1
4
 0.979611 0.274685 0.274685 1
4
 0.995624 0.284077 0.284077 1
4
 0.985007 0.276206 0.276206 1
4
 0.990192 0.278412 0.278412 1
4
 0.954698 0.290532 0.290532 1
4
 0.956751 0.29054 0.29054 1
4
 0.963371 0.295564 0.295564 1
4
 0.960853 0.291805 0.291805 1
4
 0.947398 0.284599 0.284599 1
4
 0.951473 0.287569 0.287569 1
4
 0.949436 0.284606 0.284606 1
4
 0.944544 0.279223 0.279223 1
4
 0.953507 0.285846 0.285846 1
4
 0.957608 0.288829 0.288829 1
4
 0.941874 0.273156 0.273156 1
4
 0.943952 0.27329 0.27329 1
4
 0.946879 0.274636 0.274636 1
4
 0.945802 0.276937 0.276937 1
4
 0.948594 0.280439 0.280439 1
4
 0.950687 0.280577 0.280577 1
4
 0.950828 0.278437 0.278437 1
4
 0.953635 0.281959 0.281959 1
4
 0.957595 0.287091 0.287091 1
4
 0.999216 0.297484 0.297484 1
4
 1 0.297153 0.297153 0.999215
4
 0.998555 0.293674 0.293674 1
4
 1 0.33151 0.33151 0.990539
4
 1 0.332116 0.332116 0.994123
4
 1 0.335562 0.335562 0.987482
4
 1 0.338317 0.338317 0.988581
4
 1 0.337287 0.337287 0.987388
4
 1 0.333489 0.333489 0.994772
4
 1 0.33503 0.33503 0.995559
4
 1 0.300617 0.300617 0.995802
4
 1 0.301067 0.301067 0.999655
4
 1 0.302059 0.302059 0.989299
4
 1 0.296964 0.296964 0.996462
4
 1 0.298722 0.298722 0.992825
4
 0.996298 0.300423 0.300423 1
4
 1 0.315381 0.315381 0.992895
4
 1 0.312083 0.312083 0.997974
4
 0.999859 0.309891 0.309891 1
4
 0.998923 0.306134 0.306134 1
4
 1 0.32374 0.32374 0.989335
4
 1 0.326449 0.326449 0.993037
4
 1 0.328152 0.328152 0.993135
4
 1 0.328771 0.328771 0.985839
4
 1 0.327173 0.327173 0.985496
4
 1 0.330572 0.330572 0.9855
4
 1 0.331557 0.331557 0.9865
4
 1 0.324706 0.324706 0.992556
4
 1 0.323365 0.323365 0.985277
4
 1 0.316626 0.316626 0.994175
4
 1 0.319688 0.319688 0.991249
4
 0.999158 0.323522 0.323522 1
4
 1 0.327046 0.327046 0.99663
4
 1 0.323611 0.323611 0.996049
4
 0.999418 0.321352 0.321352 1
4
 0.991198 0.317945 0.317945 1
4
 0.984411 0.312142 0.312142 1
4
 0.981344 0.311009 0.311009 1
4
 0.986718 0.312187 0.312187 1
4
 0.989675 0.318604 0.318604 1
4
 0.985277 0.315826 0.315826 1
4
 0.999059 0.325178 0.325178 1
4
 0.990357 0.314784 0.314784 1
4
 0.995113 0.31844 0.31844 1
4
 0.993326 0.321254 0.321254 1
4
 0.997524 0.325852 0.325852 1
4
 1 0.330112 0.330112 0.99738
4
 0.978851 0.305881 0.305881 1
4
 0.978218 0.307873 0.307873 1
4
 0.983575 0.309039 0.309039 1
4
 0.975801 0.304771 0.304771 1
4
 0.979831 0.303445 0.303445 1
4
 0.975087 0.298919 0.298919 1
4
 0.971585 0.300192 0.300192 1
4
 0.973292 0.299224 0.299224 1
4
 0.981145 0.305925 0.305925 1
4
 0.970957 0.302147 0.302147 1
4
 0.97908 0.311506 0.311506 1
4
 1 0.308808 0.308808 0.978711
4
 1 0.300725 0.300725 0.98789
4
 1 0.295653 0.295653 0.995043
4
 1 0.292538 0.292538 0.995479
4
 0.958762 0.274136 0.274136 1
4
 0.961191 0.277055 0.277055 1
4
 0.966034 0.278749 0.278749 1
4
 0.965539 0.276749 0.276749 1
4
 0.961235 0.272685 0.272685 1
4
 0.959313 0.277081 0.277081 1
4
 0.966589 0.281743 0.281743 1
4
 0.966253 0.28302 0.28302 1
4
 0.964823 0.283738 0.283738 1
4
 1 0.334084 0.334084 0.971942
4
 1 0.335513 0.335513 0.968612
4
 1 0.329499 0.329499 0.976167
4
 1 0.33739 0.33739 0.969643
4
 1 0.339819 0.339819 0.96928
4
 1 0.332959 0.332959 0.977546
4
 1 0.331342 0.331342 0.977206
4
 1 0.334783 0.334783 0.97721
4
 1 0.341272 0.341272 0.965958
4
 1 0.343497 0.343497 0.961767
4
 0.971122 0.28475 0.28475 1
4
 0.970962 0.281432 0.281432 1
4
 0.976087 0.285397 0.285397 1
4
 0.969347 0.286767 0.286767 1
4
 0.97311 0.289187 0.289187 1
4
 0.971669 0.289921 0.289921 1
4
 0.970823 0.291267 0.291267 1
4
 0.965299 0.287019 0.287019 1
4
 0.978455 0.295963 0.295963 1
4
 0.974592 0.293724 0.293724 1
4
 0.982359 0.301839 0.301839 1
4
 0.986166 0.303469 0.303469 1
4
 0.977603 0.297337 0.297337 1
4
 0.987052 0.305735 0.305735 1
4
 0.978481 0.299556 0.299556 1
4
 0.98456 0.306578 0.306578 1
4
 0.989288 0.310139 0.310139 1
4
 0.994923 0.310953 0.310953 1
4
 0.995796 0.310451 0.310451 1
4
 0.993639 0.307646 0.307646 1
4
 0.993122 0.311813 0.311813 1
4
 0.999862 0.314054 0.314054 1
4
 1 0.317134 0.317134 0.997195
4
 1 0.318363 0.318363 0.998288
4
 0.997177 0.315432 0.315432 1
4
 0.968203 0.290784 0.290784 1
4
 0.971951 0.29539 0.29539 1
4
 1 0.34597 0.34597 0.961407
4
 1 0.346936 0.346936 0.962994
4
 1 0.338636 0.338636 0.973497
4
 1 0.342736 0.342736 0.969127
4
 1 0.349198 0.349198 0.958816
4
 1 0.352419 0.352419 0.959167
4
 1 0.351623 0.351623 0.963178
4
 1 0.349383 0.349383 0.964415
4
 1 0.345934 0.345934 0.966516
4
 0.996853 0.276567 0.276567 1
4
 0.995682 0.27756 0.27756 1
4
 1 0.27982 0.27982 0.998524
4
 1 0.28239 0.28239 0.99991
4
 0.99669 0.273343 0.273343 1
4
 1 0.276604 0.276604 0.998688
4
 0.992664 0.273489 0.273489 1
4
 0.998443 0.276123 0.276123 1
4
 0.995888 0.279273 0.279273 1
4
 0.990523 0.275488 0.275488 1
4
 0.930362 0.240217 0.240217 1
4
 0.945726 0.251359 0.251359 1
4
 0.952715 0.255559 0.255559 1
4
 0.938465 0.245798 0.245798 1
4
 0.968025 0.268033 0.268033 1
4
 0.971384 0.270576 0.270576 1
4
 0.975002 0.270494 0.270494 1
4
 0.969104 0.266146 0.266146 1
4
 0.965501 0.265425 0.265425 1
4
 0.968599 0.269751 0.269751 1
4
 0.967033 0.27053 0.27053 1
4
 0.962733 0.264616 0.264616 1
4
 1 0.32839 0.32839 0.981795
4
 1 0.331801 0.331801 0.981799
4
 1 0.334612 0.334612 0.982458
4
 1 0.337658 0.337658 0.977057
4
 0.998572 0.310714 0.310714 1
4
 1 0.316345 0.316345 0.99632
4
 1 0.291373 0.291373 0.98856
4
 1 0.294449 0.294449 0.979141
4
 1 0.286917 0.286917 0.996512
4
 1 0.285907 0.285907 0.999633
4
 0.994909 0.280308 0.280308 1
4
 1 0.288768 0.288768 0.996443
4
 0.970388 0.273096 0.273096 1
4
 0.994978 0.282136 0.282136 1
4
 0.984368 0.274319 0.274319 1
4
 0.973289 0.267771 0.267771 1
4
 0.958225 0.283156 0.283156 1
4
 0.957737 0.284901 0.284901 1
4
 0.966421 0.291082 0.291082 1
4
 0.962204 0.28831 0.28831 1
4
 0.96846 0.296648 0.296648 1
4
 0.964234 0.293823 0.293823 1
4
 0.965928 0.292876 0.292876 1
4
 1 0.343151 0.343151 0.980858
4
 1 0.342106 0.342106 0.979674
4
 1 0.346877 0.346877 0.972262
4
 1 0.343453 0.343453 0.97438
4
 1 0.337335 0.337335 0.983363
4
 1 0.338664 0.338664 0.978048
4
 1 0.340105 0.340105 0.984458
4
 1 0.340405 0.340405 0.977956
4
 1 0.345153 0.345153 0.970557
4
 0.96614 0.275309 0.275309 1
4
 0.975587 0.283349 0.283349 1
4
 0.969642 0.276635 0.276635 1
4
 0.96532 0.272573 0.272573 1
4
 0.987616 0.29384 0.29384 1
4
 0.957139 0.256286 0.256286 1
4
 0.962718 0.259537 0.259537 1
4
 0.961796 0.260167 0.260167 1
4
 0.958221 0.259462 0.259462 1
4
 0.963806 0.262753 0.262753 1
4
 0.990615 0.312673 0.312673 1
4
 1 0.320641 0.320641 0.994476
4
 0.999902 0.319792 0.319792 1
4
 0.987392 0.319113 0.319113 1
4
 0.996873 0.326985 0.326985 1
4
 0.99214 0.323795 0.323795 1
4
 0.987731 0.320971 0.320971 1
4
 0.98673 0.321601 0.321601 1
4
 0.997216 0.32889 0.32889 1
4
 1 0.333008 0.333008 0.99882
4
 0.991475 0.326319 0.326319 1
4
 0.996428 0.330148 0.330148 1
4
 0.995418 0.330796 0.330796 1
1
 1

